NAME : cgl_81.8336.tour
COMMENT : Length = 8336
COMMENT : Found by LKH-3 [Keld Helsgaun] Fri Nov  8 19:20:31 2024
TYPE : TOUR
DIMENSION : 81
TOUR_SECTION
12
13
14
47
48
11
42
43
41
46
45
44
49
50
53
52
51
64
63
62
65
67
66
68
61
69
60
59
71
72
70
57
58
56
54
55
75
76
74
73
81
1
23
24
22
35
18
19
20
21
36
39
37
38
17
15
16
9
3
4
6
77
80
79
78
5
2
34
29
32
28
25
31
27
33
30
26
7
8
10
40
-1
EOF
